c Sudoku solution
p cnf 729 0
113 0
186 0
226 0
253 0
287 0
317 0
365 0
423 0
445 0
539 0
541 0
594 0
638 0
682 0
691 0
746 0
356 0
859 0
874 0
384 0
881 0
925 0
895 0
755 0
585 0
615 0
948 0
951 0
976 0
496 0
516 0
666 0
836 0
983 0
733 0
393 0
328 0
818 0
331 0
721 0
411 0
129 0
624 0
657 0
192 0
379 0
298 0
342 0
772 0
673 0
489 0
649 0
563 0
843 0
147 0
244 0
158 0
161 0
269 0
175 0
271 0
134 0
212 0
235 0
454 0
552 0
468 0
432 0
527 0
477 0
578 0
822 0
937 0
867 0
962 0
764 0
719 0
914 0
797 0
999 0
788 0
